
Gurobi 11.0.2 (win64) logging started Wed Aug 14 19:05:44 2024

Set parameter LogFile to value "D:\Documenti\Scuola\Laurea magistrale unibs\laurea-unibs-mkfsp\output\2024-08-14T16_44_40.946359\logs\instance03_bucket2.log"
Set parameter TimeLimit to value 500
Set parameter MIPGap to value 0
Gurobi Optimizer version 11.0.2 build v11.0.2rc0 (win64 - Windows 10.0 (19045.2))

CPU model: Intel(R) Core(TM) i5-4670 CPU @ 3.40GHz, instruction set [SSE2|AVX|AVX2]
Thread count: 4 physical cores, 4 logical processors, using up to 4 threads

Optimize a model with 1656 rows, 8065 columns and 86141 nonzeros
Model fingerprint: 0x4000eb35
Variable types: 0 continuous, 8065 integer (8000 binary)
Coefficient statistics:
  Matrix range     [1e+00, 8e+03]
  Objective range  [6e+02, 8e+03]
  Bounds range     [1e+00, 1e+00]
  RHS range        [1e+00, 3e+05]
Found heuristic solution: objective 294278.00000
Presolve time: 0.11s
Presolved: 1656 rows, 8065 columns, 86141 nonzeros
Variable types: 0 continuous, 8065 integer (8000 binary)
Found heuristic solution: objective 336438.00000

Root relaxation: objective 3.492510e+05, 859 iterations, 0.01 seconds (0.01 work units)

    Nodes    |    Current Node    |     Objective Bounds      |     Work
 Expl Unexpl |  Obj  Depth IntInf | Incumbent    BestBd   Gap | It/Node Time

H    0     0                    349251.00000 349251.000  0.00%     -    0s
     0     0 349251.000    0  378 349251.000 349251.000  0.00%     -    0s

Explored 1 nodes (859 simplex iterations) in 0.15 seconds (0.11 work units)
Thread count was 4 (of 4 available processors)

Solution count 3: 349251 336438 294278 

Optimal solution found (tolerance 0.00e+00)
Best objective 3.492510000000e+05, best bound 3.492510000000e+05, gap 0.0000%
